H2O1 /home/patrick/xtalopt-runs/VASP/tes
   1.0000000000000000     
     1.0532999599999999    0.0000000000000000    0.0000000000000000
     0.1617415400000000    2.5170169300000000    0.0000000000000000
     0.4218069400000000    1.1532399000000000    2.2687929300000000
   H    O 
     2     1
Direct
  0.0873971960793164  0.5019660436993799 -0.1917358168893765
  0.9317195263977713  0.2041959577499876  0.4923304223199135
  0.0870689575229080 -0.1465596214493664  0.1524183445694645

  0.00000000E+00  0.00000000E+00  0.00000000E+00
  0.00000000E+00  0.00000000E+00  0.00000000E+00
  0.00000000E+00  0.00000000E+00  0.00000000E+00
